100
3748
64 85
53 158
81 23
57 29
39 111
61 29
39 134
33 28
56 152
53 44
89 157
46 137
24 33
78 166
92 51
25 117
75 186
19 32
82 52
45 131
88 188
10 137
56 119
83 96
9 75
27 67
69 22
100 178
90 14
89 108
99 142
54 185
33 123
22 192
76 69
91 36
73 102
51 21
20 43
6 147
96 151
16 95
32 27
61 157
77 176
51 163
38 64
31 75
13 62
33 157
49 62
52 119
65 66
80 149
32 47
74 130
4 10
77 109
51 12
66 56
80 193
13 181
38 30
58 46
80 65
35 173
95 85
90 143
75 56
75 28
24 29
19 81
57 65
49 115
85 157
38 87
82 121
8 70
89 169
66 122
53 33
10 70
79 86
23 56
17 150
66 154
69 87
29 46
4 40
65 154
35 99
48 154
26 48
82 101
32 22
62 67
86 175
40 168
46 140
72 142
